p tw 30 38
e 0 5
e 0 15
e 0 17
e 0 25
e 1 8
e 1 21
e 2 4
e 2 10
e 2 25
e 3 10
e 3 11
e 3 19
e 3 20
e 3 27
e 4 6
e 4 14
e 5 12
e 5 15
e 5 25
e 7 18
e 9 10
e 9 15
e 9 20
e 10 23
e 10 29
e 11 29
e 13 28
e 14 21
e 15 17
e 16 20
e 16 25
e 19 24
e 20 24
e 21 25
e 22 24
e 22 26
e 26 27
e 26 28
